NAME: map0_72
TYPE: TSP
COMMENT: autogenerated using a wonderful map creator
DIMENSION: 96
EDGE_WEIGHT_TYPE: EUC_2D
NODE_COORD_SECTION
1 4.0 2.0
2 3.0 2.0
3 4.0 5.0
4 3.0 5.0
5 4.0 8.0
6 3.0 8.0
7 79.0 2.0
8 80.0 2.0
9 79.0 5.0
10 80.0 5.0
11 79.0 8.0
12 80.0 8.0
13 2.0 2.0
14 1.0 2.0
15 81.0 5.0
16 82.0 5.0
17 2.0 8.0
18 1.0 8.0
19 81.0 2.0
20 82.0 2.0
21 2.0 5.0
22 1.0 5.0
23 81.0 8.0
24 82.0 8.0
25 79.0 3.0
26 80.0 3.0
27 79.0 6.0
28 80.0 6.0
29 79.0 9.0
30 80.0 9.0
31 4.0 3.0
32 3.0 3.0
33 4.0 6.0
34 3.0 6.0
35 4.0 9.0
36 3.0 9.0
37 81.0 3.0
38 82.0 3.0
39 2.0 6.0
40 1.0 6.0
41 81.0 9.0
42 82.0 9.0
43 2.0 3.0
44 1.0 3.0
45 81.0 6.0
46 82.0 6.0
47 2.0 9.0
48 1.0 9.0
49 62.0 8.0
50 31.0 5.0
51 55.0 2.0
52 31.0 8.0
53 55.0 5.0
54 36.0 4.0
55 47.0 4.0
56 58.0 4.0
57 36.0 7.0
58 42.0 2.0
59 9.0 5.0
60 42.0 5.0
61 11.0 2.0
62 75.0 5.0
63 75.0 8.0
64 24.0 2.0
65 68.0 2.0
66 68.0 8.0
67 11.0 8.0
68 57.0 5.0
69 24.0 8.0
70 26.0 5.0
71 57.0 8.0
72 13.0 8.0
73 35.0 8.0
74 26.0 8.0
75 72.0 2.0
76 39.0 5.0
77 72.0 5.0
78 20.0 2.0
79 14.0 6.0
80 59.0 2.0
81 58.0 6.0
82 70.0 2.0
83 59.0 5.0
84 36.0 6.0
85 58.0 3.0
86 37.0 8.0
87 59.0 8.0
88 28.0 5.0
89 52.0 2.0
90 19.0 5.0
91 61.0 8.0
92 74.0 5.0
93 76.0 2.0
94 65.0 2.0
95 52.0 8.0
96 30.0 5.0
97 76.0 5.0
98 10.0 8.0
99 21.0 2.0
100 54.0 2.0
101 23.0 2.0
102 45.0 2.0
103 23.0 5.0
104 58.0 2.0
105 14.0 5.0
106 34.0 8.0
107 58.0 5.0
108 67.0 8.0
109 47.0 8.0
110 51.0 2.0
111 62.0 2.0
112 16.0 2.0
113 49.0 2.0
114 38.0 5.0
115 49.0 5.0
116 18.0 2.0
117 73.0 8.0
118 38.0 8.0
119 73.0 5.0
120 18.0 8.0
START_DEPOT_SECTION
1
2
3
4
5
6
7
8
9
10
11
12
13
14
15
16
17
18
19
20
21
22
23
24
-1
END_DEPOT_SECTION
25
26
27
28
29
30
31
32
33
34
35
36
37
38
39
40
41
42
43
44
45
46
47
48
-1
EOF
